(set-logic ALL)
(declare-const GEN4 String)
(declare-const GEN3 String)
(declare-const GEN2 String)
(declare-const GEN1 String)
(assert (str.is_digit GEN1))
(assert (str.is_digit GEN2))
(assert (not (str.is_digit GEN3)))
(assert (not (str.is_digit GEN4)))
(check-sat)
(get-model)